c Unsatisfiable circuit - contradictory requirements
c This circuit has conflicting constraints that cannot be satisfied
c Variables: x1, x2, x3
c The clauses create a logical contradiction
p cnf 3 5
1 2 0
-1 3 0
-2 -3 0
1 -3 0
-1 2 3 0